    1C
    1UUSER                                                              
    1UDATE              14.july.2012                                    
    1UTIME              11:02:22                                        
    1UHOST                                                              
    1UPGM               CalculiX                                        
    1UDIR                                                               
    1UDBN                                                               
    2C                           282                                     1
 -1         1 0.00000E+00 0.00000E+00 0.00000E+00
 -1         2 1.00000E+00 0.00000E+00 0.00000E+00
 -1         3 1.00000E+00 1.00000E+00 0.00000E+00
 -1         4 0.00000E+00 1.00000E+00 0.00000E+00
 -1         9 2.50000E-01 0.00000E+00 0.00000E+00
 -1        10 5.00000E-01 0.00000E+00 0.00000E+00
 -1        11 7.50000E-01 0.00000E+00 0.00000E+00
 -1        12 1.00000E+00 2.50000E-01 0.00000E+00
 -1        13 1.00000E+00 5.00000E-01 0.00000E+00
 -1        14 1.00000E+00 7.50000E-01 0.00000E+00
 -1        15 7.50000E-01 1.00000E+00 0.00000E+00
 -1        16 5.00000E-01 1.00000E+00 0.00000E+00
 -1        17 2.50000E-01 1.00000E+00 0.00000E+00
 -1        18 0.00000E+00 7.50000E-01 0.00000E+00
 -1        19 0.00000E+00 5.00000E-01 0.00000E+00
 -1        20 0.00000E+00 2.50000E-01 0.00000E+00
 -1        33 1.00000E+00 0.00000E+00 5.00000E-01
 -1        34 1.00000E+00 0.00000E+00 1.00000E+00
 -1        35 1.00000E+00 0.00000E+00 1.50000E+00
 -1        36 1.00000E+00 0.00000E+00 2.00000E+00
 -1        37 1.00000E+00 0.00000E+00 2.50000E+00
 -1        38 1.00000E+00 0.00000E+00 3.00000E+00
 -1        39 1.00000E+00 0.00000E+00 3.50000E+00
 -1        40 1.00000E+00 0.00000E+00 4.00000E+00
 -1        55 0.00000E+00 0.00000E+00 4.00000E+00
 -1        56 0.00000E+00 0.00000E+00 3.50000E+00
 -1        57 0.00000E+00 0.00000E+00 3.00000E+00
 -1        58 0.00000E+00 0.00000E+00 2.50000E+00
 -1        59 0.00000E+00 0.00000E+00 2.00000E+00
 -1        60 0.00000E+00 0.00000E+00 1.50000E+00
 -1        61 0.00000E+00 0.00000E+00 1.00000E+00
 -1        62 0.00000E+00 0.00000E+00 5.00000E-01
 -1        63 1.00000E+00 1.00000E+00 5.00000E-01
 -1        64 1.00000E+00 1.00000E+00 1.00000E+00
 -1        65 1.00000E+00 1.00000E+00 1.50000E+00
 -1        66 1.00000E+00 1.00000E+00 2.00000E+00
 -1        67 1.00000E+00 1.00000E+00 2.50000E+00
 -1        68 1.00000E+00 1.00000E+00 3.00000E+00
 -1        69 1.00000E+00 1.00000E+00 3.50000E+00
 -1        70 1.00000E+00 1.00000E+00 4.00000E+00
 -1        78 0.00000E+00 1.00000E+00 5.00000E-01
 -1        79 0.00000E+00 1.00000E+00 1.00000E+00
 -1        80 0.00000E+00 1.00000E+00 1.50000E+00
 -1        81 0.00000E+00 1.00000E+00 2.00000E+00
 -1        82 0.00000E+00 1.00000E+00 2.50000E+00
 -1        83 0.00000E+00 1.00000E+00 3.00000E+00
 -1        84 0.00000E+00 1.00000E+00 3.50000E+00
 -1        85 0.00000E+00 1.00000E+00 4.00000E+00
 -1        93 5.00000E-01 2.50000E-01 0.00000E+00
 -1        94 2.50000E-01 5.00000E-01 0.00000E+00
 -1        95 5.00000E-01 5.00000E-01 0.00000E+00
 -1        96 7.50000E-01 5.00000E-01 0.00000E+00
 -1        97 5.00000E-01 7.50000E-01 0.00000E+00
 -1       103 5.00000E-01 0.00000E+00 5.00000E-01
 -1       104 2.50000E-01 0.00000E+00 1.00000E+00
 -1       105 5.00000E-01 0.00000E+00 1.00000E+00
 -1       106 7.50000E-01 0.00000E+00 1.00000E+00
 -1       107 5.00000E-01 0.00000E+00 1.50000E+00
 -1       108 2.50000E-01 0.00000E+00 2.00000E+00
 -1       109 5.00000E-01 0.00000E+00 2.00000E+00
 -1       110 7.50000E-01 0.00000E+00 2.00000E+00
 -1       111 5.00000E-01 0.00000E+00 2.50000E+00
 -1       112 2.50000E-01 0.00000E+00 3.00000E+00
 -1       113 5.00000E-01 0.00000E+00 3.00000E+00
 -1       114 7.50000E-01 0.00000E+00 3.00000E+00
 -1       115 5.00000E-01 0.00000E+00 3.50000E+00
 -1       116 2.50000E-01 0.00000E+00 4.00000E+00
 -1       117 5.00000E-01 0.00000E+00 4.00000E+00
 -1       118 7.50000E-01 0.00000E+00 4.00000E+00
 -1       132 1.00000E+00 5.00000E-01 5.00000E-01
 -1       133 1.00000E+00 2.50000E-01 1.00000E+00
 -1       134 1.00000E+00 5.00000E-01 1.00000E+00
 -1       135 1.00000E+00 7.50000E-01 1.00000E+00
 -1       136 1.00000E+00 5.00000E-01 1.50000E+00
 -1       137 1.00000E+00 2.50000E-01 2.00000E+00
 -1       138 1.00000E+00 5.00000E-01 2.00000E+00
 -1       139 1.00000E+00 7.50000E-01 2.00000E+00
 -1       140 1.00000E+00 5.00000E-01 2.50000E+00
 -1       141 1.00000E+00 2.50000E-01 3.00000E+00
 -1       142 1.00000E+00 5.00000E-01 3.00000E+00
 -1       143 1.00000E+00 7.50000E-01 3.00000E+00
 -1       144 1.00000E+00 5.00000E-01 3.50000E+00
 -1       145 1.00000E+00 2.50000E-01 4.00000E+00
 -1       146 1.00000E+00 5.00000E-01 4.00000E+00
 -1       147 1.00000E+00 7.50000E-01 4.00000E+00
 -1       161 5.00000E-01 1.00000E+00 5.00000E-01
 -1       162 7.50000E-01 1.00000E+00 1.00000E+00
 -1       163 5.00000E-01 1.00000E+00 1.00000E+00
 -1       164 2.50000E-01 1.00000E+00 1.00000E+00
 -1       165 5.00000E-01 1.00000E+00 1.50000E+00
 -1       166 7.50000E-01 1.00000E+00 2.00000E+00
 -1       167 5.00000E-01 1.00000E+00 2.00000E+00
 -1       168 2.50000E-01 1.00000E+00 2.00000E+00
 -1       169 5.00000E-01 1.00000E+00 2.50000E+00
 -1       170 7.50000E-01 1.00000E+00 3.00000E+00
 -1       171 5.00000E-01 1.00000E+00 3.00000E+00
 -1       172 2.50000E-01 1.00000E+00 3.00000E+00
 -1       173 5.00000E-01 1.00000E+00 3.50000E+00
 -1       174 7.50000E-01 1.00000E+00 4.00000E+00
 -1       175 5.00000E-01 1.00000E+00 4.00000E+00
 -1       176 2.50000E-01 1.00000E+00 4.00000E+00
 -1       190 0.00000E+00 5.00000E-01 5.00000E-01
 -1       191 0.00000E+00 7.50000E-01 1.00000E+00
 -1       192 0.00000E+00 5.00000E-01 1.00000E+00
 -1       193 0.00000E+00 2.50000E-01 1.00000E+00
 -1       194 0.00000E+00 5.00000E-01 1.50000E+00
 -1       195 0.00000E+00 7.50000E-01 2.00000E+00
 -1       196 0.00000E+00 5.00000E-01 2.00000E+00
 -1       197 0.00000E+00 2.50000E-01 2.00000E+00
 -1       198 0.00000E+00 5.00000E-01 2.50000E+00
 -1       199 0.00000E+00 7.50000E-01 3.00000E+00
 -1       200 0.00000E+00 5.00000E-01 3.00000E+00
 -1       201 0.00000E+00 2.50000E-01 3.00000E+00
 -1       202 0.00000E+00 5.00000E-01 3.50000E+00
 -1       203 0.00000E+00 7.50000E-01 4.00000E+00
 -1       204 0.00000E+00 5.00000E-01 4.00000E+00
 -1       205 0.00000E+00 2.50000E-01 4.00000E+00
 -1       219 5.00000E-01 5.00000E-01 5.00000E-01
 -1       220 5.00000E-01 2.50000E-01 1.00000E+00
 -1       221 2.50000E-01 5.00000E-01 1.00000E+00
 -1       222 5.00000E-01 5.00000E-01 1.00000E+00
 -1       223 7.50000E-01 5.00000E-01 1.00000E+00
 -1       224 5.00000E-01 7.50000E-01 1.00000E+00
 -1       225 5.00000E-01 5.00000E-01 1.50000E+00
 -1       226 5.00000E-01 2.50000E-01 2.00000E+00
 -1       227 2.50000E-01 5.00000E-01 2.00000E+00
 -1       228 5.00000E-01 5.00000E-01 2.00000E+00
 -1       229 7.50000E-01 5.00000E-01 2.00000E+00
 -1       230 5.00000E-01 7.50000E-01 2.00000E+00
 -1       231 5.00000E-01 5.00000E-01 2.50000E+00
 -1       232 5.00000E-01 2.50000E-01 3.00000E+00
 -1       233 2.50000E-01 5.00000E-01 3.00000E+00
 -1       234 5.00000E-01 5.00000E-01 3.00000E+00
 -1       235 7.50000E-01 5.00000E-01 3.00000E+00
 -1       236 5.00000E-01 7.50000E-01 3.00000E+00
 -1       237 5.00000E-01 5.00000E-01 3.50000E+00
 -1       238 5.00000E-01 2.50000E-01 4.00000E+00
 -1       239 2.50000E-01 5.00000E-01 4.00000E+00
 -1       240 5.00000E-01 5.00000E-01 4.00000E+00
 -1       241 7.50000E-01 5.00000E-01 4.00000E+00
 -1       242 5.00000E-01 7.50000E-01 4.00000E+00
 -1       243 0.00000E+00 0.00000E+00 8.00000E+00
 -1       244 1.00000E+00 0.00000E+00 8.00000E+00
 -1       245 1.00000E+00 1.00000E+00 8.00000E+00
 -1       246 0.00000E+00 1.00000E+00 8.00000E+00
 -1       247 2.50000E-01 0.00000E+00 8.00000E+00
 -1       248 5.00000E-01 0.00000E+00 8.00000E+00
 -1       249 7.50000E-01 0.00000E+00 8.00000E+00
 -1       250 1.00000E+00 2.50000E-01 8.00000E+00
 -1       251 1.00000E+00 5.00000E-01 8.00000E+00
 -1       252 1.00000E+00 7.50000E-01 8.00000E+00
 -1       253 7.50000E-01 1.00000E+00 8.00000E+00
 -1       254 5.00000E-01 1.00000E+00 8.00000E+00
 -1       255 2.50000E-01 1.00000E+00 8.00000E+00
 -1       256 0.00000E+00 7.50000E-01 8.00000E+00
 -1       257 0.00000E+00 5.00000E-01 8.00000E+00
 -1       258 0.00000E+00 2.50000E-01 8.00000E+00
 -1       259 1.00000E+00 0.00000E+00 4.00000E+00
 -1       260 1.00000E+00 0.00000E+00 4.50000E+00
 -1       261 1.00000E+00 0.00000E+00 5.00000E+00
 -1       262 1.00000E+00 0.00000E+00 5.50000E+00
 -1       263 1.00000E+00 0.00000E+00 6.00000E+00
 -1       264 1.00000E+00 0.00000E+00 6.50000E+00
 -1       265 1.00000E+00 0.00000E+00 7.00000E+00
 -1       266 1.00000E+00 0.00000E+00 7.50000E+00
 -1       267 0.00000E+00 0.00000E+00 7.50000E+00
 -1       268 0.00000E+00 0.00000E+00 7.00000E+00
 -1       269 0.00000E+00 0.00000E+00 6.50000E+00
 -1       270 0.00000E+00 0.00000E+00 6.00000E+00
 -1       271 0.00000E+00 0.00000E+00 5.50000E+00
 -1       272 0.00000E+00 0.00000E+00 5.00000E+00
 -1       273 0.00000E+00 0.00000E+00 4.50000E+00
 -1       274 0.00000E+00 0.00000E+00 4.00000E+00
 -1       275 1.00000E+00 1.00000E+00 4.00000E+00
 -1       276 1.00000E+00 1.00000E+00 4.50000E+00
 -1       277 1.00000E+00 1.00000E+00 5.00000E+00
 -1       278 1.00000E+00 1.00000E+00 5.50000E+00
 -1       279 1.00000E+00 1.00000E+00 6.00000E+00
 -1       280 1.00000E+00 1.00000E+00 6.50000E+00
 -1       281 1.00000E+00 1.00000E+00 7.00000E+00
 -1       282 1.00000E+00 1.00000E+00 7.50000E+00
 -1       283 0.00000E+00 1.00000E+00 4.00000E+00
 -1       284 0.00000E+00 1.00000E+00 4.50000E+00
 -1       285 0.00000E+00 1.00000E+00 5.00000E+00
 -1       286 0.00000E+00 1.00000E+00 5.50000E+00
 -1       287 0.00000E+00 1.00000E+00 6.00000E+00
 -1       288 0.00000E+00 1.00000E+00 6.50000E+00
 -1       289 0.00000E+00 1.00000E+00 7.00000E+00
 -1       290 0.00000E+00 1.00000E+00 7.50000E+00
 -1       291 5.00000E-01 2.50000E-01 8.00000E+00
 -1       292 2.50000E-01 5.00000E-01 8.00000E+00
 -1       293 5.00000E-01 5.00000E-01 8.00000E+00
 -1       294 7.50000E-01 5.00000E-01 8.00000E+00
 -1       295 5.00000E-01 7.50000E-01 8.00000E+00
 -1       296 2.50000E-01 0.00000E+00 4.00000E+00
 -1       297 5.00000E-01 0.00000E+00 4.00000E+00
 -1       298 7.50000E-01 0.00000E+00 4.00000E+00
 -1       299 5.00000E-01 0.00000E+00 4.50000E+00
 -1       300 2.50000E-01 0.00000E+00 5.00000E+00
 -1       301 5.00000E-01 0.00000E+00 5.00000E+00
 -1       302 7.50000E-01 0.00000E+00 5.00000E+00
 -1       303 5.00000E-01 0.00000E+00 5.50000E+00
 -1       304 2.50000E-01 0.00000E+00 6.00000E+00
 -1       305 5.00000E-01 0.00000E+00 6.00000E+00
 -1       306 7.50000E-01 0.00000E+00 6.00000E+00
 -1       307 5.00000E-01 0.00000E+00 6.50000E+00
 -1       308 2.50000E-01 0.00000E+00 7.00000E+00
 -1       309 5.00000E-01 0.00000E+00 7.00000E+00
 -1       310 7.50000E-01 0.00000E+00 7.00000E+00
 -1       311 5.00000E-01 0.00000E+00 7.50000E+00
 -1       312 1.00000E+00 2.50000E-01 4.00000E+00
 -1       313 1.00000E+00 5.00000E-01 4.00000E+00
 -1       314 1.00000E+00 7.50000E-01 4.00000E+00
 -1       315 1.00000E+00 5.00000E-01 4.50000E+00
 -1       316 1.00000E+00 2.50000E-01 5.00000E+00
 -1       317 1.00000E+00 5.00000E-01 5.00000E+00
 -1       318 1.00000E+00 7.50000E-01 5.00000E+00
 -1       319 1.00000E+00 5.00000E-01 5.50000E+00
 -1       320 1.00000E+00 2.50000E-01 6.00000E+00
 -1       321 1.00000E+00 5.00000E-01 6.00000E+00
 -1       322 1.00000E+00 7.50000E-01 6.00000E+00
 -1       323 1.00000E+00 5.00000E-01 6.50000E+00
 -1       324 1.00000E+00 2.50000E-01 7.00000E+00
 -1       325 1.00000E+00 5.00000E-01 7.00000E+00
 -1       326 1.00000E+00 7.50000E-01 7.00000E+00
 -1       327 1.00000E+00 5.00000E-01 7.50000E+00
 -1       328 7.50000E-01 1.00000E+00 4.00000E+00
 -1       329 5.00000E-01 1.00000E+00 4.00000E+00
 -1       330 2.50000E-01 1.00000E+00 4.00000E+00
 -1       331 5.00000E-01 1.00000E+00 4.50000E+00
 -1       332 7.50000E-01 1.00000E+00 5.00000E+00
 -1       333 5.00000E-01 1.00000E+00 5.00000E+00
 -1       334 2.50000E-01 1.00000E+00 5.00000E+00
 -1       335 5.00000E-01 1.00000E+00 5.50000E+00
 -1       336 7.50000E-01 1.00000E+00 6.00000E+00
 -1       337 5.00000E-01 1.00000E+00 6.00000E+00
 -1       338 2.50000E-01 1.00000E+00 6.00000E+00
 -1       339 5.00000E-01 1.00000E+00 6.50000E+00
 -1       340 7.50000E-01 1.00000E+00 7.00000E+00
 -1       341 5.00000E-01 1.00000E+00 7.00000E+00
 -1       342 2.50000E-01 1.00000E+00 7.00000E+00
 -1       343 5.00000E-01 1.00000E+00 7.50000E+00
 -1       344 0.00000E+00 7.50000E-01 4.00000E+00
 -1       345 0.00000E+00 5.00000E-01 4.00000E+00
 -1       346 0.00000E+00 2.50000E-01 4.00000E+00
 -1       347 0.00000E+00 5.00000E-01 4.50000E+00
 -1       348 0.00000E+00 7.50000E-01 5.00000E+00
 -1       349 0.00000E+00 5.00000E-01 5.00000E+00
 -1       350 0.00000E+00 2.50000E-01 5.00000E+00
 -1       351 0.00000E+00 5.00000E-01 5.50000E+00
 -1       352 0.00000E+00 7.50000E-01 6.00000E+00
 -1       353 0.00000E+00 5.00000E-01 6.00000E+00
 -1       354 0.00000E+00 2.50000E-01 6.00000E+00
 -1       355 0.00000E+00 5.00000E-01 6.50000E+00
 -1       356 0.00000E+00 7.50000E-01 7.00000E+00
 -1       357 0.00000E+00 5.00000E-01 7.00000E+00
 -1       358 0.00000E+00 2.50000E-01 7.00000E+00
 -1       359 0.00000E+00 5.00000E-01 7.50000E+00
 -1       360 5.00000E-01 2.50000E-01 4.00000E+00
 -1       361 2.50000E-01 5.00000E-01 4.00000E+00
 -1       362 5.00000E-01 5.00000E-01 4.00000E+00
 -1       363 7.50000E-01 5.00000E-01 4.00000E+00
 -1       364 5.00000E-01 7.50000E-01 4.00000E+00
 -1       365 5.00000E-01 5.00000E-01 4.50000E+00
 -1       366 5.00000E-01 2.50000E-01 5.00000E+00
 -1       367 2.50000E-01 5.00000E-01 5.00000E+00
 -1       368 5.00000E-01 5.00000E-01 5.00000E+00
 -1       369 7.50000E-01 5.00000E-01 5.00000E+00
 -1       370 5.00000E-01 7.50000E-01 5.00000E+00
 -1       371 5.00000E-01 5.00000E-01 5.50000E+00
 -1       372 5.00000E-01 2.50000E-01 6.00000E+00
 -1       373 2.50000E-01 5.00000E-01 6.00000E+00
 -1       374 5.00000E-01 5.00000E-01 6.00000E+00
 -1       375 7.50000E-01 5.00000E-01 6.00000E+00
 -1       376 5.00000E-01 7.50000E-01 6.00000E+00
 -1       377 5.00000E-01 5.00000E-01 6.50000E+00
 -1       378 5.00000E-01 2.50000E-01 7.00000E+00
 -1       379 2.50000E-01 5.00000E-01 7.00000E+00
 -1       380 5.00000E-01 5.00000E-01 7.00000E+00
 -1       381 7.50000E-01 5.00000E-01 7.00000E+00
 -1       382 5.00000E-01 7.50000E-01 7.00000E+00
 -1       383 5.00000E-01 5.00000E-01 7.50000E+00
 -3
    3C                            32                                     1
 -1         1    4    0EL   
 -2         1        10        95        19        61       105       222       192         9        93
 -2        94        20        62       103       219       190       104       220       221       193
 -1         2    4    0EL   
 -2        10         2        13        95       105        34       134       222        11        12
 -2        96        93       103        33       132       219       106       133       223       220
 -1         3    4    0EL   
 -2        19        95        16         4       192       222       163        79        94        97
 -2        17        18       190       219       161        78       221       224       164       191
 -1         4    4    0EL   
 -2        95        13         3        16       222       134        64       163        96        14
 -2        15        97       219       132        63       161       223       135       162       224
 -1         5    4    0EL   
 -2        61       105       222       192        59       109       228       196       104       220
 -2       221       193        60       107       225       194       108       226       227       197
 -1         6    4    0EL   
 -2       105        34       134       222       109        36       138       228       106       133
 -2       223       220       107        35       136       225       110       137       229       226
 -1         7    4    0EL   
 -2       192       222       163        79       196       228       167        81       221       224
 -2       164       191       194       225       165        80       227       230       168       195
 -1         8    4    0EL   
 -2       222       134        64       163       228       138        66       167       223       135
 -2       162       224       225       136        65       165       229       139       166       230
 -1         9    4    0EL   
 -2        59       109       228       196        57       113       234       200       108       226
 -2       227       197        58       111       231       198       112       232       233       201
 -1        10    4    0EL   
 -2       109        36       138       228       113        38       142       234       110       137
 -2       229       226       111        37       140       231       114       141       235       232
 -1        11    4    0EL   
 -2       196       228       167        81       200       234       171        83       227       230
 -2       168       195       198       231       169        82       233       236       172       199
 -1        12    4    0EL   
 -2       228       138        66       167       234       142        68       171       229       139
 -2       166       230       231       140        67       169       235       143       170       236
 -1        13    4    0EL   
 -2        57       113       234       200        55       117       240       204       112       232
 -2       233       201        56       115       237       202       116       238       239       205
 -1        14    4    0EL   
 -2       113        38       142       234       117        40       146       240       114       141
 -2       235       232       115        39       144       237       118       145       241       238
 -1        15    4    0EL   
 -2       200       234       171        83       204       240       175        85       233       236
 -2       172       199       202       237       173        84       239       242       176       203
 -1        16    4    0EL   
 -2       234       142        68       171       240       146        70       175       235       143
 -2       170       236       237       144        69       173       241       147       174       242
 -1        17    4    0EL   
 -2       274       297       362       345       272       301       368       349       296       360
 -2       361       346       273       299       365       347       300       366       367       350
 -1        18    4    0EL   
 -2       297       259       313       362       301       261       317       368       298       312
 -2       363       360       299       260       315       365       302       316       369       366
 -1        19    4    0EL   
 -2       345       362       329       283       349       368       333       285       361       364
 -2       330       344       347       365       331       284       367       370       334       348
 -1        20    4    0EL   
 -2       362       313       275       329       368       317       277       333       363       314
 -2       328       364       365       315       276       331       369       318       332       370
 -1        21    4    0EL   
 -2       272       301       368       349       270       305       374       353       300       366
 -2       367       350       271       303       371       351       304       372       373       354
 -1        22    4    0EL   
 -2       301       261       317       368       305       263       321       374       302       316
 -2       369       366       303       262       319       371       306       320       375       372
 -1        23    4    0EL   
 -2       349       368       333       285       353       374       337       287       367       370
 -2       334       348       351       371       335       286       373       376       338       352
 -1        24    4    0EL   
 -2       368       317       277       333       374       321       279       337       369       318
 -2       332       370       371       319       278       335       375       322       336       376
 -1        25    4    0EL   
 -2       270       305       374       353       268       309       380       357       304       372
 -2       373       354       269       307       377       355       308       378       379       358
 -1        26    4    0EL   
 -2       305       263       321       374       309       265       325       380       306       320
 -2       375       372       307       264       323       377       310       324       381       378
 -1        27    4    0EL   
 -2       353       374       337       287       357       380       341       289       373       376
 -2       338       352       355       377       339       288       379       382       342       356
 -1        28    4    0EL   
 -2       374       321       279       337       380       325       281       341       375       322
 -2       336       376       377       323       280       339       381       326       340       382
 -1        29    4    0EL   
 -2       268       309       380       357       243       248       293       257       308       378
 -2       379       358       267       311       383       359       247       291       292       258
 -1        30    4    0EL   
 -2       309       265       325       380       248       244       251       293       310       324
 -2       381       378       311       266       327       383       249       250       294       291
 -1        31    4    0EL   
 -2       357       380       341       289       257       293       254       246       379       382
 -2       342       356       359       383       343       290       292       295       255       256
 -1        32    4    0EL   
 -2       380       325       281       341       293       251       245       254       381       326
 -2       340       382       383       327       282       343       294       252       253       295
 -3
    1PSTEP                         1           1           1          
  100CL  101 1.00000E+00         282                     0    1           1
 -4  DISP        4    1
 -5  D1          1    2    1    0
 -5  D2          1    2    2    0
 -5  D3          1    2    3    0
 -5  ALL         1    2    0    0    1ALL
 -1         1 0.00000E+00 0.00000E+00 0.00000E+00
 -1         2 0.00000E+00 0.00000E+00 0.00000E+00
 -1         3 0.00000E+00 0.00000E+00 0.00000E+00
 -1         4 0.00000E+00 0.00000E+00 0.00000E+00
 -1         9 0.00000E+00 0.00000E+00 0.00000E+00
 -1        10 0.00000E+00 0.00000E+00 0.00000E+00
 -1        11 0.00000E+00 0.00000E+00 0.00000E+00
 -1        12 0.00000E+00 0.00000E+00 0.00000E+00
 -1        13 0.00000E+00 0.00000E+00 0.00000E+00
 -1        14 0.00000E+00 0.00000E+00 0.00000E+00
 -1        15 0.00000E+00 0.00000E+00 0.00000E+00
 -1        16 0.00000E+00 0.00000E+00 0.00000E+00
 -1        17 0.00000E+00 0.00000E+00 0.00000E+00
 -1        18 0.00000E+00 0.00000E+00 0.00000E+00
 -1        19 0.00000E+00 0.00000E+00 0.00000E+00
 -1        20 0.00000E+00 0.00000E+00 0.00000E+00
 -1        33 8.14486E-04-8.14486E-04-1.95848E-04
 -1        34 6.11865E-04-6.11865E-04-3.63700E-04
 -1        35 7.48332E-04-7.48332E-04-6.75210E-04
 -1        36 7.16970E-04-7.16970E-04-9.33562E-04
 -1        37 7.34544E-04-7.34544E-04-1.21905E-03
 -1        38 7.66018E-04-7.66018E-04-1.48443E-03
 -1        39 6.96847E-04-6.96847E-04-1.84778E-03
 -1        40 9.79969E-04-9.79969E-04-2.32987E-03
 -1        55-9.79969E-04-9.79969E-04-2.32987E-03
 -1        56-6.96847E-04-6.96847E-04-1.84778E-03
 -1        57-7.66018E-04-7.66018E-04-1.48443E-03
 -1        58-7.34544E-04-7.34544E-04-1.21905E-03
 -1        59-7.16970E-04-7.16970E-04-9.33562E-04
 -1        60-7.48332E-04-7.48332E-04-6.75210E-04
 -1        61-6.11865E-04-6.11865E-04-3.63700E-04
 -1        62-8.14486E-04-8.14486E-04-1.95848E-04
 -1        63 8.14486E-04 8.14486E-04-1.95848E-04
 -1        64 6.11865E-04 6.11865E-04-3.63700E-04
 -1        65 7.48332E-04 7.48332E-04-6.75210E-04
 -1        66 7.16970E-04 7.16970E-04-9.33562E-04
 -1        67 7.34544E-04 7.34544E-04-1.21905E-03
 -1        68 7.66018E-04 7.66018E-04-1.48443E-03
 -1        69 6.96847E-04 6.96847E-04-1.84778E-03
 -1        70 9.79969E-04 9.79969E-04-2.32987E-03
 -1        78-8.14486E-04 8.14486E-04-1.95848E-04
 -1        79-6.11865E-04 6.11865E-04-3.63700E-04
 -1        80-7.48332E-04 7.48332E-04-6.75210E-04
 -1        81-7.16970E-04 7.16970E-04-9.33562E-04
 -1        82-7.34544E-04 7.34544E-04-1.21905E-03
 -1        83-7.66018E-04 7.66018E-04-1.48443E-03
 -1        84-6.96847E-04 6.96847E-04-1.84778E-03
 -1        85-9.79969E-04 9.79969E-04-2.32987E-03
 -1        93 0.00000E+00 0.00000E+00 0.00000E+00
 -1        94 0.00000E+00 0.00000E+00 0.00000E+00
 -1        95 0.00000E+00 0.00000E+00 0.00000E+00
 -1        96 0.00000E+00 0.00000E+00 0.00000E+00
 -1        97 0.00000E+00 0.00000E+00 0.00000E+00
 -1       103-7.54522E-18-8.15545E-04-7.71461E-05
 -1       104-3.07952E-04-6.24900E-04-3.84171E-04
 -1       105-3.25583E-17-6.40485E-04-4.17392E-04
 -1       106 3.07952E-04-6.24900E-04-3.84171E-04
 -1       107-6.44660E-17-7.35468E-04-6.63295E-04
 -1       108-3.58369E-04-7.26087E-04-9.40142E-04
 -1       109-1.04221E-16-7.35091E-04-9.52276E-04
 -1       110 3.58369E-04-7.26087E-04-9.40142E-04
 -1       111-1.35322E-16-7.30501E-04-1.21429E-03
 -1       112-3.79556E-04-7.74442E-04-1.50185E-03
 -1       113-1.63449E-16-7.81496E-04-1.49717E-03
 -1       114 3.79556E-04-7.74442E-04-1.50185E-03
 -1       115-1.82171E-16-6.75881E-04-1.78827E-03
 -1       116-4.89719E-04-9.83341E-04-2.20300E-03
 -1       117-1.92166E-16-9.86586E-04-2.17301E-03
 -1       118 4.89719E-04-9.83341E-04-2.20300E-03
 -1       132 8.15545E-04-5.20417E-18-7.71461E-05
 -1       133 6.24900E-04-3.07952E-04-3.84171E-04
 -1       134 6.40485E-04-2.11055E-17-4.17392E-04
 -1       135 6.24900E-04 3.07952E-04-3.84171E-04
 -1       136 7.35468E-04-4.02070E-17-6.63295E-04
 -1       137 7.26087E-04-3.58369E-04-9.40142E-04
 -1       138 7.35091E-04-6.44173E-17-9.52276E-04
 -1       139 7.26087E-04 3.58369E-04-9.40142E-04
 -1       140 7.30501E-04-8.56249E-17-1.21429E-03
 -1       141 7.74442E-04-3.79556E-04-1.50185E-03
 -1       142 7.81496E-04-1.09010E-16-1.49717E-03
 -1       143 7.74442E-04 3.79556E-04-1.50185E-03
 -1       144 6.75881E-04-1.24887E-16-1.78827E-03
 -1       145 9.83341E-04-4.89719E-04-2.20300E-03
 -1       146 9.86586E-04-1.31812E-16-2.17301E-03
 -1       147 9.83341E-04 4.89719E-04-2.20300E-03
 -1       161-7.93112E-18 8.15545E-04-7.71461E-05
 -1       162 3.07952E-04 6.24900E-04-3.84171E-04
 -1       163-3.31495E-17 6.40485E-04-4.17392E-04
 -1       164-3.07952E-04 6.24900E-04-3.84171E-04
 -1       165-6.29179E-17 7.35468E-04-6.63295E-04
 -1       166 3.58369E-04 7.26087E-04-9.40142E-04
 -1       167-9.93332E-17 7.35091E-04-9.52276E-04
 -1       168-3.58369E-04 7.26087E-04-9.40142E-04
 -1       169-1.29690E-16 7.30501E-04-1.21429E-03
 -1       170 3.79556E-04 7.74442E-04-1.50185E-03
 -1       171-1.58294E-16 7.81496E-04-1.49717E-03
 -1       172-3.79556E-04 7.74442E-04-1.50185E-03
 -1       173-1.79137E-16 6.75881E-04-1.78827E-03
 -1       174 4.89719E-04 9.83341E-04-2.20300E-03
 -1       175-1.91213E-16 9.86586E-04-2.17301E-03
 -1       176-4.89719E-04 9.83341E-04-2.20300E-03
 -1       190-8.15545E-04-5.41379E-18-7.71461E-05
 -1       191-6.24900E-04 3.07952E-04-3.84171E-04
 -1       192-6.40485E-04-2.19724E-17-4.17392E-04
 -1       193-6.24900E-04-3.07952E-04-3.84171E-04
 -1       194-7.35468E-04-3.88779E-17-6.63295E-04
 -1       195-7.26087E-04 3.58369E-04-9.40142E-04
 -1       196-7.35091E-04-5.98547E-17-9.52276E-04
 -1       197-7.26087E-04-3.58369E-04-9.40142E-04
 -1       198-7.30501E-04-8.14778E-17-1.21429E-03
 -1       199-7.74442E-04 3.79556E-04-1.50185E-03
 -1       200-7.81496E-04-1.02932E-16-1.49717E-03
 -1       201-7.74442E-04-3.79556E-04-1.50185E-03
 -1       202-6.75881E-04-1.22384E-16-1.78827E-03
 -1       203-9.83341E-04 4.89719E-04-2.20300E-03
 -1       204-9.86586E-04-1.31273E-16-2.17301E-03
 -1       205-9.83341E-04-4.89719E-04-2.20300E-03
 -1       219-9.49826E-18-6.52325E-18 4.76208E-05
 -1       220-3.30284E-17-3.20465E-04-4.42462E-04
 -1       221-3.20465E-04-2.13026E-17-4.42462E-04
 -1       222-3.19924E-17-2.15150E-17-4.78538E-04
 -1       223 3.20465E-04-2.14265E-17-4.42462E-04
 -1       224-3.28547E-17 3.20465E-04-4.42462E-04
 -1       225-6.43338E-17-4.02435E-17-6.52456E-04
 -1       226-1.01290E-16-3.67481E-04-9.55256E-04
 -1       227-3.67481E-04-6.14472E-17-9.55256E-04
 -1       228-9.89366E-17-6.23344E-17-9.66076E-04
 -1       229 3.67481E-04-6.29650E-17-9.55256E-04
 -1       230-9.88869E-17 3.67481E-04-9.55256E-04
 -1       231-1.31690E-16-8.38424E-17-1.20944E-03
 -1       232-1.60524E-16-3.88269E-04-1.51881E-03
 -1       233-3.88269E-04-1.04286E-16-1.51881E-03
 -1       234-1.58450E-16-1.05262E-16-1.51372E-03
 -1       235 3.88269E-04-1.06785E-16-1.51881E-03
 -1       236-1.58163E-16 3.88269E-04-1.51881E-03
 -1       237-1.79686E-16-1.22867E-16-1.73201E-03
 -1       238-1.89730E-16-4.93161E-04-2.03628E-03
 -1       239-4.93161E-04-1.29909E-16-2.03628E-03
 -1       240-1.89362E-16-1.30660E-16-2.00275E-03
 -1       241 4.93161E-04-1.30419E-16-2.03628E-03
 -1       242-1.90433E-16 4.93161E-04-2.03628E-03
 -1       243 0.00000E+00 0.00000E+00 0.00000E+00
 -1       244 0.00000E+00 0.00000E+00 0.00000E+00
 -1       245 0.00000E+00 0.00000E+00 0.00000E+00
 -1       246 0.00000E+00 0.00000E+00 0.00000E+00
 -1       247 0.00000E+00 0.00000E+00 0.00000E+00
 -1       248 0.00000E+00 0.00000E+00 0.00000E+00
 -1       249 0.00000E+00 0.00000E+00 0.00000E+00
 -1       250 0.00000E+00 0.00000E+00 0.00000E+00
 -1       251 0.00000E+00 0.00000E+00 0.00000E+00
 -1       252 0.00000E+00 0.00000E+00 0.00000E+00
 -1       253 0.00000E+00 0.00000E+00 0.00000E+00
 -1       254 0.00000E+00 0.00000E+00 0.00000E+00
 -1       255 0.00000E+00 0.00000E+00 0.00000E+00
 -1       256 0.00000E+00 0.00000E+00 0.00000E+00
 -1       257 0.00000E+00 0.00000E+00 0.00000E+00
 -1       258 0.00000E+00 0.00000E+00 0.00000E+00
 -1       259 9.79969E-04-9.79969E-04-2.32987E-03
 -1       260 1.27492E-03-1.27492E-03-1.90729E-03
 -1       261 1.18626E-03-1.18626E-03-1.60620E-03
 -1       262 1.24205E-03-1.24205E-03-1.39349E-03
 -1       263 1.18623E-03-1.18623E-03-1.19840E-03
 -1       264 1.26060E-03-1.26060E-03-9.45138E-04
 -1       265 1.02606E-03-1.02606E-03-7.66501E-04
 -1       266 1.36959E-03-1.36959E-03-3.59703E-04
 -1       267-1.36959E-03-1.36959E-03-3.59703E-04
 -1       268-1.02606E-03-1.02606E-03-7.66501E-04
 -1       269-1.26060E-03-1.26060E-03-9.45138E-04
 -1       270-1.18623E-03-1.18623E-03-1.19840E-03
 -1       271-1.24205E-03-1.24205E-03-1.39349E-03
 -1       272-1.18626E-03-1.18626E-03-1.60620E-03
 -1       273-1.27492E-03-1.27492E-03-1.90729E-03
 -1       274-9.79969E-04-9.79969E-04-2.32987E-03
 -1       275 9.79969E-04 9.79969E-04-2.32987E-03
 -1       276 1.27492E-03 1.27492E-03-1.90729E-03
 -1       277 1.18626E-03 1.18626E-03-1.60620E-03
 -1       278 1.24205E-03 1.24205E-03-1.39349E-03
 -1       279 1.18623E-03 1.18623E-03-1.19840E-03
 -1       280 1.26060E-03 1.26060E-03-9.45138E-04
 -1       281 1.02606E-03 1.02606E-03-7.66501E-04
 -1       282 1.36959E-03 1.36959E-03-3.59703E-04
 -1       283-9.79969E-04 9.79969E-04-2.32987E-03
 -1       284-1.27492E-03 1.27492E-03-1.90729E-03
 -1       285-1.18626E-03 1.18626E-03-1.60620E-03
 -1       286-1.24205E-03 1.24205E-03-1.39349E-03
 -1       287-1.18623E-03 1.18623E-03-1.19840E-03
 -1       288-1.26060E-03 1.26060E-03-9.45138E-04
 -1       289-1.02606E-03 1.02606E-03-7.66501E-04
 -1       290-1.36959E-03 1.36959E-03-3.59703E-04
 -1       291 0.00000E+00 0.00000E+00 0.00000E+00
 -1       292 0.00000E+00 0.00000E+00 0.00000E+00
 -1       293 0.00000E+00 0.00000E+00 0.00000E+00
 -1       294 0.00000E+00 0.00000E+00 0.00000E+00
 -1       295 0.00000E+00 0.00000E+00 0.00000E+00
 -1       296-4.89719E-04-9.83341E-04-2.20300E-03
 -1       297-1.92166E-16-9.86586E-04-2.17301E-03
 -1       298 4.89719E-04-9.83341E-04-2.20300E-03
 -1       299-1.84584E-16-1.28946E-03-1.84827E-03
 -1       300-5.97339E-04-1.18873E-03-1.62141E-03
 -1       301-1.65372E-16-1.19320E-03-1.61234E-03
 -1       302 5.97339E-04-1.18873E-03-1.62141E-03
 -1       303-1.37284E-16-1.23134E-03-1.39786E-03
 -1       304-5.89485E-04-1.20452E-03-1.18372E-03
 -1       305-1.04626E-16-1.22142E-03-1.17883E-03
 -1       306 5.89485E-04-1.20452E-03-1.18372E-03
 -1       307-6.71595E-17-1.23808E-03-9.60876E-04
 -1       308-5.17259E-04-1.04899E-03-7.34736E-04
 -1       309-3.36937E-17-1.07660E-03-6.77036E-04
 -1       310 5.17259E-04-1.04899E-03-7.34736E-04
 -1       311-6.95540E-18-1.37048E-03-5.59271E-04
 -1       312 9.83341E-04-4.89719E-04-2.20300E-03
 -1       313 9.86586E-04-1.31812E-16-2.17301E-03
 -1       314 9.83341E-04 4.89719E-04-2.20300E-03
 -1       315 1.28946E-03-1.26554E-16-1.84827E-03
 -1       316 1.18873E-03-5.97339E-04-1.62141E-03
 -1       317 1.19320E-03-1.13244E-16-1.61234E-03
 -1       318 1.18873E-03 5.97339E-04-1.62141E-03
 -1       319 1.23134E-03-9.51194E-17-1.39786E-03
 -1       320 1.20452E-03-5.89485E-04-1.18372E-03
 -1       321 1.22142E-03-7.01329E-17-1.17883E-03
 -1       322 1.20452E-03 5.89485E-04-1.18372E-03
 -1       323 1.23808E-03-4.55034E-17-9.60876E-04
 -1       324 1.04899E-03-5.17259E-04-7.34736E-04
 -1       325 1.07660E-03-2.57856E-17-6.77036E-04
 -1       326 1.04899E-03 5.17259E-04-7.34736E-04
 -1       327 1.37048E-03-7.61652E-18-5.59271E-04
 -1       328 4.89719E-04 9.83341E-04-2.20300E-03
 -1       329-1.91213E-16 9.86586E-04-2.17301E-03
 -1       330-4.89719E-04 9.83341E-04-2.20300E-03
 -1       331-1.89159E-16 1.28946E-03-1.84827E-03
 -1       332 5.97339E-04 1.18873E-03-1.62141E-03
 -1       333-1.71080E-16 1.19320E-03-1.61234E-03
 -1       334-5.97339E-04 1.18873E-03-1.62141E-03
 -1       335-1.46781E-16 1.23134E-03-1.39786E-03
 -1       336 5.89485E-04 1.20452E-03-1.18372E-03
 -1       337-1.14637E-16 1.22142E-03-1.17883E-03
 -1       338-5.89485E-04 1.20452E-03-1.18372E-03
 -1       339-7.85711E-17 1.23808E-03-9.60876E-04
 -1       340 5.17259E-04 1.04899E-03-7.34736E-04
 -1       341-4.45412E-17 1.07660E-03-6.77036E-04
 -1       342-5.17259E-04 1.04899E-03-7.34736E-04
 -1       343-1.61010E-17 1.37048E-03-5.59271E-04
 -1       344-9.83341E-04 4.89719E-04-2.20300E-03
 -1       345-9.86586E-04-1.31273E-16-2.17301E-03
 -1       346-9.83341E-04-4.89719E-04-2.20300E-03
 -1       347-1.28946E-03-1.32012E-16-1.84827E-03
 -1       348-1.18873E-03 5.97339E-04-1.62141E-03
 -1       349-1.19320E-03-1.20440E-16-1.61234E-03
 -1       350-1.18873E-03-5.97339E-04-1.62141E-03
 -1       351-1.23134E-03-1.02618E-16-1.39786E-03
 -1       352-1.20452E-03 5.89485E-04-1.18372E-03
 -1       353-1.22142E-03-7.54541E-17-1.17883E-03
 -1       354-1.20452E-03-5.89485E-04-1.18372E-03
 -1       355-1.23808E-03-5.78428E-17-9.60876E-04
 -1       356-1.04899E-03 5.17259E-04-7.34736E-04
 -1       357-1.07660E-03-3.45630E-17-6.77036E-04
 -1       358-1.04899E-03-5.17259E-04-7.34736E-04
 -1       359-1.37048E-03-1.78378E-17-5.59271E-04
 -1       360-1.89730E-16-4.93161E-04-2.03628E-03
 -1       361-4.93161E-04-1.29909E-16-2.03628E-03
 -1       362-1.89362E-16-1.30660E-16-2.00275E-03
 -1       363 4.93161E-04-1.30419E-16-2.03628E-03
 -1       364-1.90433E-16 4.93161E-04-2.03628E-03
 -1       365-1.85456E-16-1.25863E-16-1.79054E-03
 -1       366-1.67299E-16-5.99366E-04-1.63627E-03
 -1       367-5.99366E-04-1.19156E-16-1.63627E-03
 -1       368-1.66629E-16-1.16939E-16-1.63196E-03
 -1       369 5.99366E-04-1.15182E-16-1.63627E-03
 -1       370-1.68975E-16 5.99366E-04-1.63627E-03
 -1       371-1.39983E-16-9.63856E-17-1.39222E-03
 -1       372-1.07178E-16-6.08069E-04-1.16932E-03
 -1       373-6.08069E-04-7.50639E-17-1.16932E-03
 -1       374-1.09798E-16-7.67005E-17-1.17005E-03
 -1       375 6.08069E-04-7.50886E-17-1.16932E-03
 -1       376-1.11300E-16 6.08069E-04-1.16932E-03
 -1       377-7.25738E-17-4.98462E-17-9.76422E-04
 -1       378-3.80284E-17-5.39176E-04-6.38161E-04
 -1       379-5.39176E-04-3.26243E-17-6.38161E-04
 -1       380-4.15520E-17-3.02154E-17-5.75066E-04
 -1       381 5.39176E-04-2.87465E-17-6.38161E-04
 -1       382-4.22593E-17 5.39176E-04-6.38161E-04
 -1       383-1.29511E-17-1.40673E-17-7.69381E-04
 -3
    1PSTEP                         2           1           1          
  100CL  101 1.00000E+00         282                     0    1           1
 -4  NDTEMP      1    1
 -5  T           1    1    0    0
 -1         1 4.00000E+02
 -1         2 4.00000E+02
 -1         3 4.00000E+02
 -1         4 4.00000E+02
 -1         9 4.00000E+02
 -1        10 4.00000E+02
 -1        11 4.00000E+02
 -1        12 4.00000E+02
 -1        13 4.00000E+02
 -1        14 4.00000E+02
 -1        15 4.00000E+02
 -1        16 4.00000E+02
 -1        17 4.00000E+02
 -1        18 4.00000E+02
 -1        19 4.00000E+02
 -1        20 4.00000E+02
 -1        33 4.00000E+02
 -1        34 4.00000E+02
 -1        35 4.00000E+02
 -1        36 4.00000E+02
 -1        37 4.00000E+02
 -1        38 4.00000E+02
 -1        39 4.00000E+02
 -1        40 4.00000E+02
 -1        55 4.00000E+02
 -1        56 4.00000E+02
 -1        57 4.00000E+02
 -1        58 4.00000E+02
 -1        59 4.00000E+02
 -1        60 4.00000E+02
 -1        61 4.00000E+02
 -1        62 4.00000E+02
 -1        63 4.00000E+02
 -1        64 4.00000E+02
 -1        65 4.00000E+02
 -1        66 4.00000E+02
 -1        67 4.00000E+02
 -1        68 4.00000E+02
 -1        69 4.00000E+02
 -1        70 4.00000E+02
 -1        78 4.00000E+02
 -1        79 4.00000E+02
 -1        80 4.00000E+02
 -1        81 4.00000E+02
 -1        82 4.00000E+02
 -1        83 4.00000E+02
 -1        84 4.00000E+02
 -1        85 4.00000E+02
 -1        93 4.00000E+02
 -1        94 4.00000E+02
 -1        95 4.00000E+02
 -1        96 4.00000E+02
 -1        97 4.00000E+02
 -1       103 4.00000E+02
 -1       104 4.00000E+02
 -1       105 4.00000E+02
 -1       106 4.00000E+02
 -1       107 4.00000E+02
 -1       108 4.00000E+02
 -1       109 4.00000E+02
 -1       110 4.00000E+02
 -1       111 4.00000E+02
 -1       112 4.00000E+02
 -1       113 4.00000E+02
 -1       114 4.00000E+02
 -1       115 4.00000E+02
 -1       116 4.00000E+02
 -1       117 4.00000E+02
 -1       118 4.00000E+02
 -1       132 4.00000E+02
 -1       133 4.00000E+02
 -1       134 4.00000E+02
 -1       135 4.00000E+02
 -1       136 4.00000E+02
 -1       137 4.00000E+02
 -1       138 4.00000E+02
 -1       139 4.00000E+02
 -1       140 4.00000E+02
 -1       141 4.00000E+02
 -1       142 4.00000E+02
 -1       143 4.00000E+02
 -1       144 4.00000E+02
 -1       145 4.00000E+02
 -1       146 4.00000E+02
 -1       147 4.00000E+02
 -1       161 4.00000E+02
 -1       162 4.00000E+02
 -1       163 4.00000E+02
 -1       164 4.00000E+02
 -1       165 4.00000E+02
 -1       166 4.00000E+02
 -1       167 4.00000E+02
 -1       168 4.00000E+02
 -1       169 4.00000E+02
 -1       170 4.00000E+02
 -1       171 4.00000E+02
 -1       172 4.00000E+02
 -1       173 4.00000E+02
 -1       174 4.00000E+02
 -1       175 4.00000E+02
 -1       176 4.00000E+02
 -1       190 4.00000E+02
 -1       191 4.00000E+02
 -1       192 4.00000E+02
 -1       193 4.00000E+02
 -1       194 4.00000E+02
 -1       195 4.00000E+02
 -1       196 4.00000E+02
 -1       197 4.00000E+02
 -1       198 4.00000E+02
 -1       199 4.00000E+02
 -1       200 4.00000E+02
 -1       201 4.00000E+02
 -1       202 4.00000E+02
 -1       203 4.00000E+02
 -1       204 4.00000E+02
 -1       205 4.00000E+02
 -1       219 4.00000E+02
 -1       220 4.00000E+02
 -1       221 4.00000E+02
 -1       222 4.00000E+02
 -1       223 4.00000E+02
 -1       224 4.00000E+02
 -1       225 4.00000E+02
 -1       226 4.00000E+02
 -1       227 4.00000E+02
 -1       228 4.00000E+02
 -1       229 4.00000E+02
 -1       230 4.00000E+02
 -1       231 4.00000E+02
 -1       232 4.00000E+02
 -1       233 4.00000E+02
 -1       234 4.00000E+02
 -1       235 4.00000E+02
 -1       236 4.00000E+02
 -1       237 4.00000E+02
 -1       238 4.00000E+02
 -1       239 4.00000E+02
 -1       240 4.00000E+02
 -1       241 4.00000E+02
 -1       242 4.00000E+02
 -1       243 5.00000E+02
 -1       244 5.00000E+02
 -1       245 5.00000E+02
 -1       246 5.00000E+02
 -1       247 5.00000E+02
 -1       248 5.00000E+02
 -1       249 5.00000E+02
 -1       250 5.00000E+02
 -1       251 5.00000E+02
 -1       252 5.00000E+02
 -1       253 5.00000E+02
 -1       254 5.00000E+02
 -1       255 5.00000E+02
 -1       256 5.00000E+02
 -1       257 5.00000E+02
 -1       258 5.00000E+02
 -1       259 5.00000E+02
 -1       260 5.00000E+02
 -1       261 5.00000E+02
 -1       262 5.00000E+02
 -1       263 5.00000E+02
 -1       264 5.00000E+02
 -1       265 5.00000E+02
 -1       266 5.00000E+02
 -1       267 5.00000E+02
 -1       268 5.00000E+02
 -1       269 5.00000E+02
 -1       270 5.00000E+02
 -1       271 5.00000E+02
 -1       272 5.00000E+02
 -1       273 5.00000E+02
 -1       274 5.00000E+02
 -1       275 5.00000E+02
 -1       276 5.00000E+02
 -1       277 5.00000E+02
 -1       278 5.00000E+02
 -1       279 5.00000E+02
 -1       280 5.00000E+02
 -1       281 5.00000E+02
 -1       282 5.00000E+02
 -1       283 5.00000E+02
 -1       284 5.00000E+02
 -1       285 5.00000E+02
 -1       286 5.00000E+02
 -1       287 5.00000E+02
 -1       288 5.00000E+02
 -1       289 5.00000E+02
 -1       290 5.00000E+02
 -1       291 5.00000E+02
 -1       292 5.00000E+02
 -1       293 5.00000E+02
 -1       294 5.00000E+02
 -1       295 5.00000E+02
 -1       296 5.00000E+02
 -1       297 5.00000E+02
 -1       298 5.00000E+02
 -1       299 5.00000E+02
 -1       300 5.00000E+02
 -1       301 5.00000E+02
 -1       302 5.00000E+02
 -1       303 5.00000E+02
 -1       304 5.00000E+02
 -1       305 5.00000E+02
 -1       306 5.00000E+02
 -1       307 5.00000E+02
 -1       308 5.00000E+02
 -1       309 5.00000E+02
 -1       310 5.00000E+02
 -1       311 5.00000E+02
 -1       312 5.00000E+02
 -1       313 5.00000E+02
 -1       314 5.00000E+02
 -1       315 5.00000E+02
 -1       316 5.00000E+02
 -1       317 5.00000E+02
 -1       318 5.00000E+02
 -1       319 5.00000E+02
 -1       320 5.00000E+02
 -1       321 5.00000E+02
 -1       322 5.00000E+02
 -1       323 5.00000E+02
 -1       324 5.00000E+02
 -1       325 5.00000E+02
 -1       326 5.00000E+02
 -1       327 5.00000E+02
 -1       328 5.00000E+02
 -1       329 5.00000E+02
 -1       330 5.00000E+02
 -1       331 5.00000E+02
 -1       332 5.00000E+02
 -1       333 5.00000E+02
 -1       334 5.00000E+02
 -1       335 5.00000E+02
 -1       336 5.00000E+02
 -1       337 5.00000E+02
 -1       338 5.00000E+02
 -1       339 5.00000E+02
 -1       340 5.00000E+02
 -1       341 5.00000E+02
 -1       342 5.00000E+02
 -1       343 5.00000E+02
 -1       344 5.00000E+02
 -1       345 5.00000E+02
 -1       346 5.00000E+02
 -1       347 5.00000E+02
 -1       348 5.00000E+02
 -1       349 5.00000E+02
 -1       350 5.00000E+02
 -1       351 5.00000E+02
 -1       352 5.00000E+02
 -1       353 5.00000E+02
 -1       354 5.00000E+02
 -1       355 5.00000E+02
 -1       356 5.00000E+02
 -1       357 5.00000E+02
 -1       358 5.00000E+02
 -1       359 5.00000E+02
 -1       360 5.00000E+02
 -1       361 5.00000E+02
 -1       362 5.00000E+02
 -1       363 5.00000E+02
 -1       364 5.00000E+02
 -1       365 5.00000E+02
 -1       366 5.00000E+02
 -1       367 5.00000E+02
 -1       368 5.00000E+02
 -1       369 5.00000E+02
 -1       370 5.00000E+02
 -1       371 5.00000E+02
 -1       372 5.00000E+02
 -1       373 5.00000E+02
 -1       374 5.00000E+02
 -1       375 5.00000E+02
 -1       376 5.00000E+02
 -1       377 5.00000E+02
 -1       378 5.00000E+02
 -1       379 5.00000E+02
 -1       380 5.00000E+02
 -1       381 5.00000E+02
 -1       382 5.00000E+02
 -1       383 5.00000E+02
 -3
    1PSTEP                         3           1           1          
  100CL  101 1.00000E+00         282                     0    1           1
 -4  STRESS      6    1
 -5  SXX         1    4    1    1
 -5  SYY         1    4    2    2
 -5  SZZ         1    4    3    3
 -5  SXY         1    4    1    2
 -5  SYZ         1    4    2    3
 -5  SZX         1    4    3    1
 -1         1-3.00977E+02-3.00977E+02-4.76923E+02 2.85405E+00-1.98085E+02-1.98085E+02
 -1         2-3.00977E+02-3.00977E+02-4.76923E+02-2.85405E+00-1.98085E+02 1.98085E+02
 -1         3-3.00977E+02-3.00977E+02-4.76923E+02 2.85405E+00 1.98085E+02 1.98085E+02
 -1         4-3.00977E+02-3.00977E+02-4.76923E+02-2.85405E+00 1.98085E+02-1.98085E+02
 -1         9-2.70068E+02-2.71495E+02-4.03375E+02 2.14055E+00-1.96525E+02-9.12598E+01
 -1        10-2.39159E+02-2.42013E+02-3.29828E+02-3.21965E-14-1.94964E+02 3.36620E-13
 -1        11-2.70068E+02-2.71495E+02-4.03375E+02-2.14055E+00-1.96525E+02 9.12598E+01
 -1        12-2.71495E+02-2.70068E+02-4.03375E+02-2.14055E+00-9.12598E+01 1.96525E+02
 -1        13-2.42013E+02-2.39159E+02-3.29828E+02-1.30673E-13 1.78524E-13 1.94964E+02
 -1        14-2.71495E+02-2.70068E+02-4.03375E+02 2.14055E+00 9.12598E+01 1.96525E+02
 -1        15-2.70068E+02-2.71495E+02-4.03375E+02 2.14055E+00 1.96525E+02 9.12598E+01
 -1        16-2.39159E+02-2.42013E+02-3.29828E+02-1.66755E-13 1.94964E+02 2.86882E-13
 -1        17-2.70068E+02-2.71495E+02-4.03375E+02-2.14055E+00 1.96525E+02-9.12598E+01
 -1        18-2.71495E+02-2.70068E+02-4.03375E+02-2.14055E+00 9.12598E+01-1.96525E+02
 -1        19-2.42013E+02-2.39159E+02-3.29828E+02 7.38298E-14 1.86517E-13-1.94964E+02
 -1        20-2.71495E+02-2.70068E+02-4.03375E+02 2.14055E+00-9.12598E+01-1.96525E+02
 -1        33-5.07022E+01-5.07022E+01-3.15001E+02 7.51657E-01-3.61087E+01 3.61087E+01
 -1        34 6.21211E+01 6.21211E+01-2.75634E+02 1.88217E+00 4.54227E+01-4.54227E+01
 -1        35-1.61956E+01-1.61956E+01-3.40383E+02-1.22938E+00-6.14052E+00 6.14052E+00
 -1        36 9.92426E+00 9.92426E+00-3.17208E+02-2.08092E-01 1.11358E+01-1.11358E+01
 -1        37 7.14768E+00 7.14768E+00-3.25252E+02 1.52786E+00-6.88638E+00 6.88638E+00
 -1        38-8.13986E+00-8.13986E+00-3.25934E+02 4.03206E-01 7.69355E+00-7.69355E+00
 -1        39-1.34842E+00-1.34842E+00-3.71680E+02-2.72352E+00 4.99634E+00-4.99634E+00
 -1        40 5.09688E+01 5.09688E+01-3.90158E+02-4.64727E+00-1.86976E+01 1.86976E+01
 -1        55 5.09688E+01 5.09688E+01-3.90158E+02 4.64727E+00-1.86976E+01-1.86976E+01
 -1        56-1.34842E+00-1.34842E+00-3.71680E+02 2.72352E+00 4.99634E+00 4.99634E+00
 -1        57-8.13986E+00-8.13986E+00-3.25934E+02-4.03206E-01 7.69355E+00 7.69355E+00
 -1        58 7.14768E+00 7.14768E+00-3.25252E+02-1.52786E+00-6.88638E+00-6.88638E+00
 -1        59 9.92426E+00 9.92426E+00-3.17208E+02 2.08092E-01 1.11358E+01 1.11358E+01
 -1        60-1.61956E+01-1.61956E+01-3.40383E+02 1.22938E+00-6.14052E+00-6.14052E+00
 -1        61 6.21211E+01 6.21211E+01-2.75634E+02-1.88217E+00 4.54227E+01 4.54227E+01
 -1        62-5.07022E+01-5.07022E+01-3.15001E+02-7.51657E-01-3.61087E+01-3.61087E+01
 -1        63-5.07022E+01-5.07022E+01-3.15001E+02-7.51657E-01 3.61087E+01 3.61087E+01
 -1        64 6.21211E+01 6.21211E+01-2.75634E+02-1.88217E+00-4.54227E+01-4.54227E+01
 -1        65-1.61956E+01-1.61956E+01-3.40383E+02 1.22938E+00 6.14052E+00 6.14052E+00
 -1        66 9.92426E+00 9.92426E+00-3.17208E+02 2.08092E-01-1.11358E+01-1.11358E+01
 -1        67 7.14768E+00 7.14768E+00-3.25252E+02-1.52786E+00 6.88638E+00 6.88638E+00
 -1        68-8.13986E+00-8.13986E+00-3.25934E+02-4.03206E-01-7.69355E+00-7.69355E+00
 -1        69-1.34842E+00-1.34842E+00-3.71680E+02 2.72352E+00-4.99634E+00-4.99634E+00
 -1        70 5.09688E+01 5.09688E+01-3.90158E+02 4.64727E+00 1.86976E+01 1.86976E+01
 -1        78-5.07022E+01-5.07022E+01-3.15001E+02 7.51657E-01 3.61087E+01-3.61087E+01
 -1        79 6.21211E+01 6.21211E+01-2.75634E+02 1.88217E+00-4.54227E+01 4.54227E+01
 -1        80-1.61956E+01-1.61956E+01-3.40383E+02-1.22938E+00 6.14052E+00-6.14052E+00
 -1        81 9.92426E+00 9.92426E+00-3.17208E+02-2.08092E-01-1.11358E+01 1.11358E+01
 -1        82 7.14768E+00 7.14768E+00-3.25252E+02 1.52786E+00 6.88638E+00-6.88638E+00
 -1        83-8.13986E+00-8.13986E+00-3.25934E+02 4.03206E-01-7.69355E+00 7.69355E+00
 -1        84-1.34842E+00-1.34842E+00-3.71680E+02-2.72352E+00-4.99634E+00 4.99634E+00
 -1        85 5.09688E+01 5.09688E+01-3.90158E+02-4.64727E+00 1.86976E+01-1.86976E+01
 -1        93-2.07756E+02-2.09183E+02-2.51797E+02-1.42109E-13-8.91239E+01-2.48690E-14
 -1        94-2.09183E+02-2.07756E+02-2.51797E+02-7.27751E-14-7.10543E-15-8.91239E+01
 -1        95-1.76353E+02-1.76353E+02-1.73767E+02-8.09422E-14-2.46914E-13-3.80140E-13
 -1        96-2.09183E+02-2.07756E+02-2.51797E+02-3.65818E-14-5.50671E-14 8.91239E+01
 -1        97-2.07756E+02-2.09183E+02-2.51797E+02-3.83027E-14 8.91239E+01-4.44089E-14
 -1       103-5.05120E+01-5.01914E+01-3.26189E+02 1.47771E-13-3.81530E+01-8.18012E-13
 -1       104 5.66812E+01 5.71911E+01-3.00148E+02-2.13890E+00 4.62974E+01 2.14838E+01
 -1       105 5.12413E+01 5.22612E+01-3.24661E+02-4.04121E-14 4.71721E+01-1.41909E-12
 -1       106 5.66812E+01 5.71911E+01-3.00148E+02 2.13890E+00 4.62974E+01-2.14838E+01
 -1       107-6.83411E+00-8.42032E+00-3.27614E+02 1.09746E-13-5.48920E+00-1.47904E-12
 -1       108 7.39088E+00 7.36114E+00-3.22440E+02 1.89831E-01 1.08792E+01 5.14150E+00
 -1       109 4.85750E+00 4.79802E+00-3.27672E+02 5.44842E-13 1.06226E+01-1.32272E-12
 -1       110 7.39088E+00 7.36114E+00-3.22440E+02-1.89831E-01 1.08792E+01-5.14150E+00
 -1       111-2.71839E-01 4.61587E+00-3.27467E+02 5.20139E-13-7.06121E+00-7.04103E-13
 -1       112-1.53229E+01-1.18358E+01-3.26847E+02 8.77788E-02 7.54370E+00 6.47925E+00
 -1       113-2.25060E+01-1.55318E+01-3.27759E+02 5.39790E-13 7.39385E+00-7.28417E-13
 -1       114-1.53229E+01-1.18358E+01-3.26847E+02-8.77788E-02 7.54370E+00-6.47925E+00
 -1       115 8.20177E+00 8.96573E+00-3.29337E+02 3.30624E-13 5.93841E+00-1.32672E-13
 -1       116 6.20549E+01 5.99333E+01-3.60681E+02 3.51895E+00-2.18201E+01-1.29209E+01
 -1       117 7.31411E+01 6.88978E+01-3.31204E+02 1.60316E-13-2.49426E+01 3.34843E-13
 -1       118 6.20549E+01 5.99333E+01-3.60681E+02-3.51895E+00-2.18201E+01 1.29209E+01
 -1       132-5.01914E+01-5.05120E+01-3.26189E+02-1.69420E-13-5.39124E-13 3.81530E+01
 -1       133 5.71911E+01 5.66812E+01-3.00148E+02 2.13890E+00 2.14838E+01-4.62974E+01
 -1       134 5.22612E+01 5.12413E+01-3.24661E+02-7.88258E-15-8.76410E-13-4.71721E+01
 -1       135 5.71911E+01 5.66812E+01-3.00148E+02-2.13890E+00-2.14838E+01-4.62974E+01
 -1       136-8.42032E+00-6.83411E+00-3.27614E+02 4.11893E-14-9.27924E-13 5.48920E+00
 -1       137 7.36114E+00 7.39088E+00-3.22440E+02-1.89831E-01 5.14150E+00-1.08792E+01
 -1       138 4.79802E+00 4.85750E+00-3.27672E+02 2.09777E-13-7.29194E-13-1.06226E+01
 -1       139 7.36114E+00 7.39088E+00-3.22440E+02 1.89831E-01-5.14150E+00-1.08792E+01
 -1       140 4.61587E+00-2.71839E-01-3.27467E+02 1.01641E-13-7.11653E-13 7.06121E+00
 -1       141-1.18358E+01-1.53229E+01-3.26847E+02-8.77788E-02 6.47925E+00-7.54370E+00
 -1       142-1.55318E+01-2.25060E+01-3.27759E+02-4.41314E-14-1.08347E-12-7.39385E+00
 -1       143-1.18358E+01-1.53229E+01-3.26847E+02 8.77788E-02-6.47925E+00-7.54370E+00
 -1       144 8.96573E+00 8.20177E+00-3.29337E+02 2.55351E-15-4.36873E-13-5.93841E+00
 -1       145 5.99333E+01 6.20549E+01-3.60681E+02-3.51895E+00-1.29209E+01 2.18201E+01
 -1       146 6.88978E+01 7.31411E+01-3.31204E+02-2.33147E-13-3.06422E-14 2.49426E+01
 -1       147 5.99333E+01 6.20549E+01-3.60681E+02 3.51895E+00 1.29209E+01 2.18201E+01
 -1       161-5.05120E+01-5.01914E+01-3.26189E+02-1.52989E-13 3.81530E+01-9.49463E-13
 -1       162 5.66812E+01 5.71911E+01-3.00148E+02-2.13890E+00-4.62974E+01-2.14838E+01
 -1       163 5.12413E+01 5.22612E+01-3.24661E+02-2.43139E-14-4.71721E+01-1.52567E-12
 -1       164 5.66812E+01 5.71911E+01-3.00148E+02 2.13890E+00-4.62974E+01 2.14838E+01
 -1       165-6.83411E+00-8.42032E+00-3.27614E+02-1.54265E-13 5.48920E+00-9.58789E-13
 -1       166 7.39088E+00 7.36114E+00-3.22440E+02 1.89831E-01-1.08792E+01-5.14150E+00
 -1       167 4.85750E+00 4.79802E+00-3.27672E+02-6.00853E-13-1.06226E+01-5.68767E-13
 -1       168 7.39088E+00 7.36114E+00-3.22440E+02-1.89831E-01-1.08792E+01 5.14150E+00
 -1       169-2.71839E-01 4.61587E+00-3.27467E+02-6.61970E-14 7.06121E+00-4.96048E-13
 -1       170-1.53229E+01-1.18358E+01-3.26847E+02 8.77788E-02-7.54370E+00-6.47925E+00
 -1       171-2.25060E+01-1.55318E+01-3.27759E+02 6.59695E-13-7.39385E+00-1.03306E-12
 -1       172-1.53229E+01-1.18358E+01-3.26847E+02-8.77788E-02-7.54370E+00 6.47925E+00
 -1       173 8.20177E+00 8.96573E+00-3.29337E+02 3.51608E-13-5.93841E+00-1.18761E-12
 -1       174 6.20549E+01 5.99333E+01-3.60681E+02 3.51895E+00 2.18201E+01 1.29209E+01
 -1       175 7.31411E+01 6.88978E+01-3.31204E+02 5.39568E-14 2.49426E+01-1.21680E-12
 -1       176 6.20549E+01 5.99333E+01-3.60681E+02-3.51895E+00 2.18201E+01-1.29209E+01
 -1       190-5.01914E+01-5.05120E+01-3.26189E+02 2.65898E-13-5.57776E-13-3.81530E+01
 -1       191 5.71911E+01 5.66812E+01-3.00148E+02 2.13890E+00-2.14838E+01 4.62974E+01
 -1       192 5.22612E+01 5.12413E+01-3.24661E+02 2.94209E-13-8.32001E-13 4.71721E+01
 -1       193 5.71911E+01 5.66812E+01-3.00148E+02-2.13890E+00 2.14838E+01 4.62974E+01
 -1       194-8.42032E+00-6.83411E+00-3.27614E+02 3.96905E-14-2.16716E-13-5.48920E+00
 -1       195 7.36114E+00 7.39088E+00-3.22440E+02-1.89831E-01-5.14150E+00 1.08792E+01
 -1       196 4.79802E+00 4.85750E+00-3.27672E+02-5.69267E-14-4.07452E-14 1.06226E+01
 -1       197 7.36114E+00 7.39088E+00-3.22440E+02 1.89831E-01 5.14150E+00 1.08792E+01
 -1       198 4.61587E+00-2.71839E-01-3.27467E+02-1.83076E-13-4.60743E-13-7.06121E+00
 -1       199-1.18358E+01-1.53229E+01-3.26847E+02-8.77788E-02-6.47925E+00 7.54370E+00
 -1       200-1.55318E+01-2.25060E+01-3.27759E+02-3.55660E-13-1.19438E-12 7.39385E+00
 -1       201-1.18358E+01-1.53229E+01-3.26847E+02 8.77788E-02 6.47925E+00 7.54370E+00
 -1       202 8.96573E+00 8.20177E+00-3.29337E+02 1.28564E-13-5.23803E-13 5.93841E+00
 -1       203 5.99333E+01 6.20549E+01-3.60681E+02-3.51895E+00 1.29209E+01-2.18201E+01
 -1       204 6.88978E+01 7.31411E+01-3.31204E+02 6.64802E-13 4.28990E-13-2.49426E+01
 -1       205 5.99333E+01 6.20549E+01-3.60681E+02 3.51895E+00-1.29209E+01-2.18201E+01
 -1       219-5.67110E+01-5.67110E+01-3.42967E+02 1.51268E-14-4.55191E-13-5.90195E-13
 -1       220 3.94906E+01 4.00005E+01-3.55025E+02 8.92758E-14 2.23066E+01-1.16840E-12
 -1       221 4.00005E+01 3.94906E+01-3.55025E+02 2.92544E-14-6.45706E-13 2.23066E+01
 -1       222 2.77398E+01 2.77398E+01-3.85388E+02-4.94049E-15-4.64295E-13-8.91509E-13
 -1       223 4.00005E+01 3.94906E+01-3.55025E+02 1.09010E-13-6.72351E-13-2.23066E+01
 -1       224 3.94906E+01 4.00005E+01-3.55025E+02-1.26538E-13-2.23066E+01-1.19527E-12
 -1       225-3.20019E+00-3.20019E+00-3.14734E+02 1.43115E-13-5.46785E-13-9.80771E-13
 -1       226 2.49190E+00 2.46216E+00-3.32733E+02 4.12656E-13 4.86802E+00-1.23912E-12
 -1       227 2.46216E+00 2.49190E+00-3.32733E+02 5.98827E-14-3.53051E-13 4.86802E+00
 -1       228 1.26304E-01 1.26304E-01-3.37794E+02 3.44410E-13-6.22391E-13-1.09729E-12
 -1       229 2.46216E+00 2.49190E+00-3.32733E+02 3.60934E-13-6.54365E-13-4.86802E+00
 -1       230 2.49190E+00 2.46216E+00-3.32733E+02-9.62702E-14-4.86802E+00-8.03912E-13
 -1       231-5.47155E-01-5.47155E-01-3.30159E+02 2.63404E-13-5.35572E-13-9.69669E-13
 -1       232-2.37177E+01-2.02306E+01-3.28326E+02 2.89740E-13 6.53925E+00-7.68718E-13
 -1       233-2.02306E+01-2.37177E+01-3.28326E+02-1.18877E-13-1.01186E-12 6.53925E+00
 -1       234-2.49295E+01-2.49295E+01-3.28894E+02 1.02657E-13-7.02327E-13-8.24896E-13
 -1       235-2.02306E+01-2.37177E+01-3.28326E+02 2.16493E-14-8.29559E-13-6.53925E+00
 -1       236-2.37177E+01-2.02306E+01-3.28326E+02 4.12670E-13-6.53925E+00-9.36806E-13
 -1       237 2.41744E+01 2.41744E+01-2.79990E+02-1.27575E-13-4.54081E-13-4.13114E-13
 -1       238 8.55264E+01 8.34047E+01-2.94492E+02-8.60423E-14-1.63932E+01 1.86517E-13
 -1       239 8.34047E+01 8.55264E+01-2.94492E+02-9.15934E-14 2.22045E-13-1.63932E+01
 -1       240 9.79116E+01 9.79116E+01-2.57781E+02-2.15189E-13-1.59650E-13 9.94760E-14
 -1       241 8.34047E+01 8.55264E+01-2.94492E+02 9.22595E-14-1.82077E-13 1.63932E+01
 -1       242 8.55264E+01 8.34047E+01-2.94492E+02-2.19824E-14 1.63932E+01-5.28466E-13
 -1       243-5.05220E+02-5.05220E+02-5.78304E+02 5.25099E+00 3.33398E+02 3.33398E+02
 -1       244-5.05220E+02-5.05220E+02-5.78304E+02-5.25099E+00 3.33398E+02-3.33398E+02
 -1       245-5.05220E+02-5.05220E+02-5.78304E+02 5.25099E+00-3.33398E+02-3.33398E+02
 -1       246-5.05220E+02-5.05220E+02-5.78304E+02-5.25099E+00-3.33398E+02 3.33398E+02
 -1       247-4.53448E+02-4.56073E+02-4.54877E+02 3.93826E+00 3.30506E+02 1.53658E+02
 -1       248-4.01676E+02-4.06927E+02-3.31450E+02-1.75904E-12 3.27615E+02-5.50671E-13
 -1       249-4.53448E+02-4.56073E+02-4.54877E+02-3.93826E+00 3.30506E+02-1.53658E+02
 -1       250-4.56073E+02-4.53448E+02-4.54877E+02-3.93826E+00 1.53658E+02-3.30506E+02
 -1       251-4.06927E+02-4.01676E+02-3.31450E+02-1.27898E-13-1.17240E-12-3.27615E+02
 -1       252-4.56073E+02-4.53448E+02-4.54877E+02 3.93826E+00-1.53658E+02-3.30506E+02
 -1       253-4.53448E+02-4.56073E+02-4.54877E+02 3.93826E+00-3.30506E+02-1.53658E+02
 -1       254-4.01676E+02-4.06927E+02-3.31450E+02-1.48503E-12-3.27615E+02 1.67688E-12
 -1       255-4.53448E+02-4.56073E+02-4.54877E+02-3.93826E+00-3.30506E+02 1.53658E+02
 -1       256-4.56073E+02-4.53448E+02-4.54877E+02-3.93826E+00-1.53658E+02 3.30506E+02
 -1       257-4.06927E+02-4.01676E+02-3.31450E+02 5.05107E-12 4.70557E-12 3.27615E+02
 -1       258-4.56073E+02-4.53448E+02-4.54877E+02 3.93826E+00 1.53658E+02 3.30506E+02
 -1       259-4.69895E+01-4.69895E+01-2.62150E+02 3.92049E+00-2.35921E+01 2.35921E+01
 -1       260-6.26940E-01-6.26940E-01-2.85357E+02 3.11896E+00 5.35795E+00-5.35795E+00
 -1       261 1.31091E+01 1.31091E+01-3.21226E+02-1.94102E+00 3.18336E+00-3.18336E+00
 -1       262-1.06808E+01-1.06808E+01-3.35987E+02-2.86920E-01-2.21264E+00 2.21264E+00
 -1       263 3.45308E+01 3.45308E+01-2.99244E+02 2.00617E+00-7.46344E+00 7.46344E+00
 -1       264-2.53683E+01-2.53683E+01-3.49511E+02-1.55718E+00 1.13663E+01-1.13663E+01
 -1       265 1.04892E+02 1.04892E+02-2.37687E+02 2.91503E+00-7.63632E+01 7.63632E+01
 -1       266-8.68963E+01-8.68963E+01-3.07531E+02 1.04007E+00 5.97483E+01-5.97483E+01
 -1       267-8.68963E+01-8.68963E+01-3.07531E+02-1.04007E+00 5.97483E+01 5.97483E+01
 -1       268 1.04892E+02 1.04892E+02-2.37687E+02-2.91503E+00-7.63632E+01-7.63632E+01
 -1       269-2.53683E+01-2.53683E+01-3.49511E+02 1.55718E+00 1.13663E+01 1.13663E+01
 -1       270 3.45308E+01 3.45308E+01-2.99244E+02-2.00617E+00-7.46344E+00-7.46344E+00
 -1       271-1.06808E+01-1.06808E+01-3.35987E+02 2.86920E-01-2.21264E+00-2.21264E+00
 -1       272 1.31091E+01 1.31091E+01-3.21226E+02 1.94102E+00 3.18336E+00 3.18336E+00
 -1       273-6.26940E-01-6.26940E-01-2.85357E+02-3.11896E+00 5.35795E+00 5.35795E+00
 -1       274-4.69895E+01-4.69895E+01-2.62150E+02-3.92049E+00-2.35921E+01-2.35921E+01
 -1       275-4.69895E+01-4.69895E+01-2.62150E+02-3.92049E+00 2.35921E+01 2.35921E+01
 -1       276-6.26940E-01-6.26940E-01-2.85357E+02-3.11896E+00-5.35795E+00-5.35795E+00
 -1       277 1.31091E+01 1.31091E+01-3.21226E+02 1.94102E+00-3.18336E+00-3.18336E+00
 -1       278-1.06808E+01-1.06808E+01-3.35987E+02 2.86920E-01 2.21264E+00 2.21264E+00
 -1       279 3.45308E+01 3.45308E+01-2.99244E+02-2.00617E+00 7.46344E+00 7.46344E+00
 -1       280-2.53683E+01-2.53683E+01-3.49511E+02 1.55718E+00-1.13663E+01-1.13663E+01
 -1       281 1.04892E+02 1.04892E+02-2.37687E+02-2.91503E+00 7.63632E+01 7.63632E+01
 -1       282-8.68963E+01-8.68963E+01-3.07531E+02-1.04007E+00-5.97483E+01-5.97483E+01
 -1       283-4.69895E+01-4.69895E+01-2.62150E+02 3.92049E+00 2.35921E+01-2.35921E+01
 -1       284-6.26940E-01-6.26940E-01-2.85357E+02 3.11896E+00-5.35795E+00 5.35795E+00
 -1       285 1.31091E+01 1.31091E+01-3.21226E+02-1.94102E+00-3.18336E+00 3.18336E+00
 -1       286-1.06808E+01-1.06808E+01-3.35987E+02-2.86920E-01 2.21264E+00-2.21264E+00
 -1       287 3.45308E+01 3.45308E+01-2.99244E+02 2.00617E+00 7.46344E+00-7.46344E+00
 -1       288-2.53683E+01-2.53683E+01-3.49511E+02-1.55718E+00-1.13663E+01 1.13663E+01
 -1       289 1.04892E+02 1.04892E+02-2.37687E+02 2.91503E+00 7.63632E+01-7.63632E+01
 -1       290-8.68963E+01-8.68963E+01-3.07531E+02 1.04007E+00-5.97483E+01 5.97483E+01
 -1       291-3.49217E+02-3.51843E+02-2.00296E+02-9.29923E-13 1.49772E+02 1.97176E-13
 -1       292-3.51843E+02-3.49217E+02-2.00296E+02 1.62592E-12 2.50644E-12 1.49772E+02
 -1       293-2.96759E+02-2.96759E+02-6.91419E+01-7.26016E-13 2.29239E-12 9.18376E-13
 -1       294-3.51843E+02-3.49217E+02-2.00296E+02 1.09690E-13 1.55254E-12-1.49772E+02
 -1       295-3.49217E+02-3.51843E+02-2.00296E+02-1.41809E-12-1.49772E+02 1.28608E-12
 -1       296-6.02683E+01-5.81060E+01-2.93809E+02-2.90684E+00-2.27821E+01-1.56074E+01
 -1       297-7.35472E+01-6.92226E+01-3.25468E+02-4.65405E-13-2.19720E+01 8.93952E-13
 -1       298-6.02683E+01-5.81060E+01-2.93809E+02 2.90684E+00-2.27821E+01 1.56074E+01
 -1       299-8.34615E+00-8.73579E+00-3.25055E+02-3.59268E-13 5.65781E+00 1.00830E-12
 -1       300 1.96125E+01 1.49313E+01-3.24934E+02 8.90804E-01 4.62398E+00 4.22008E+00
 -1       301 2.61159E+01 1.67536E+01-3.28642E+02-3.90021E-13 6.06461E+00 1.11378E-12
 -1       302 1.96125E+01 1.49313E+01-3.24934E+02-8.90804E-01 4.62398E+00-4.22008E+00
 -1       303-5.89841E+00-6.39245E+00-3.27559E+02-1.74305E-13-4.76784E+00 1.22702E-12
 -1       304 2.19609E+01 2.64675E+01-3.12742E+02-1.11377E+00-5.82470E+00-5.90990E+00
 -1       305 9.39105E+00 1.84042E+01-3.26239E+02 3.24185E-14-4.18596E+00 1.65312E-12
 -1       306 2.19609E+01 2.64675E+01-3.12742E+02 1.11377E+00-5.82470E+00 5.90990E+00
 -1       307-1.45371E+01-1.40150E+01-3.28089E+02 3.22464E-13 1.07764E+01 1.57718E-12
 -1       308 9.68885E+01 9.69217E+01-2.80064E+02-3.51741E+00-7.81343E+01-3.52381E+01
 -1       309 8.88846E+01 8.89510E+01-3.22440E+02 7.61391E-13-7.99055E+01 1.52900E-12
 -1       310 9.68885E+01 9.69217E+01-2.80064E+02 3.51741E+00-7.81343E+01 3.52381E+01
 -1       311-8.44383E+01-8.48225E+01-3.25079E+02-4.97158E-13 6.31281E+01 6.54587E-13
 -1       312-5.81060E+01-6.02683E+01-2.93809E+02 2.90684E+00-1.56074E+01 2.27821E+01
 -1       313-6.92226E+01-7.35472E+01-3.25468E+02 9.58122E-14 5.15143E-14 2.19720E+01
 -1       314-5.81060E+01-6.02683E+01-2.93809E+02-2.90684E+00 1.56074E+01 2.27821E+01
 -1       315-8.73579E+00-8.34615E+00-3.25055E+02 1.81855E-13 5.85754E-13-5.65781E+00
 -1       316 1.49313E+01 1.96125E+01-3.24934E+02-8.90804E-01 4.22008E+00-4.62398E+00
 -1       317 1.67536E+01 2.61159E+01-3.28642E+02 5.04596E-13 8.24674E-13-6.06461E+00
 -1       318 1.49313E+01 1.96125E+01-3.24934E+02 8.90804E-01-4.22008E+00-4.62398E+00
 -1       319-6.39245E+00-5.89841E+00-3.27559E+02 1.96954E-13 8.85514E-13 4.76784E+00
 -1       320 2.64675E+01 2.19609E+01-3.12742E+02 1.11377E+00-5.90990E+00 5.82470E+00
 -1       321 1.84042E+01 9.39105E+00-3.26239E+02-9.33698E-14 1.07958E-12 4.18596E+00
 -1       322 2.64675E+01 2.19609E+01-3.12742E+02-1.11377E+00 5.90990E+00 5.82470E+00
 -1       323-1.40150E+01-1.45371E+01-3.28089E+02-2.07001E-13 6.21281E-13-1.07764E+01
 -1       324 9.69217E+01 9.68885E+01-2.80064E+02 3.51741E+00-3.52381E+01 7.81343E+01
 -1       325 8.89510E+01 8.88846E+01-3.22440E+02 1.23679E-13 9.33476E-13 7.99055E+01
 -1       326 9.69217E+01 9.68885E+01-2.80064E+02-3.51741E+00 3.52381E+01 7.81343E+01
 -1       327-8.48225E+01-8.44383E+01-3.25079E+02 3.47056E-13 1.84741E-13-6.31281E+01
 -1       328-6.02683E+01-5.81060E+01-2.93809E+02-2.90684E+00 2.27821E+01 1.56074E+01
 -1       329-7.35472E+01-6.92226E+01-3.25468E+02-2.04170E-13 2.19720E+01-1.79190E-12
 -1       330-6.02683E+01-5.81060E+01-2.93809E+02 2.90684E+00 2.27821E+01-1.56074E+01
 -1       331-8.34615E+00-8.73579E+00-3.25055E+02 2.90656E-13-5.65781E+00-2.24487E-13
 -1       332 1.96125E+01 1.49313E+01-3.24934E+02 8.90804E-01-4.62398E+00-4.22008E+00
 -1       333 2.61159E+01 1.67536E+01-3.28642E+02 5.13367E-13-6.06461E+00 9.78329E-13
 -1       334 1.96125E+01 1.49313E+01-3.24934E+02-8.90804E-01-4.62398E+00 4.22008E+00
 -1       335-5.89841E+00-6.39245E+00-3.27559E+02 2.94209E-13 4.76784E+00 9.00391E-13
 -1       336 2.19609E+01 2.64675E+01-3.12742E+02-1.11377E+00 5.82470E+00 5.90990E+00
 -1       337 9.39105E+00 1.84042E+01-3.26239E+02 1.73639E-13 4.18596E+00 1.09845E-12
 -1       338 2.19609E+01 2.64675E+01-3.12742E+02 1.11377E+00 5.82470E+00-5.90990E+00
 -1       339-1.45371E+01-1.40150E+01-3.28089E+02 1.74527E-13-1.07764E+01 1.22258E-12
 -1       340 9.68885E+01 9.69217E+01-2.80064E+02-3.51741E+00 7.81343E+01 3.52381E+01
 -1       341 8.88846E+01 8.89510E+01-3.22440E+02 2.53353E-13 7.99055E+01 1.37135E-12
 -1       342 9.68885E+01 9.69217E+01-2.80064E+02 3.51741E+00 7.81343E+01-3.52381E+01
 -1       343-8.44383E+01-8.48225E+01-3.25079E+02-6.63469E-13-6.31281E+01 1.49214E-12
 -1       344-5.81060E+01-6.02683E+01-2.93809E+02 2.90684E+00 1.56074E+01-2.27821E+01
 -1       345-6.92226E+01-7.35472E+01-3.25468E+02 9.08273E-13-4.10338E-13-2.19720E+01
 -1       346-5.81060E+01-6.02683E+01-2.93809E+02-2.90684E+00-1.56074E+01-2.27821E+01
 -1       347-8.73579E+00-8.34615E+00-3.25055E+02 2.54019E-13 2.37366E-13 5.65781E+00
 -1       348 1.49313E+01 1.96125E+01-3.24934E+02-8.90804E-01-4.22008E+00 4.62398E+00
 -1       349 1.67536E+01 2.61159E+01-3.28642E+02-3.62987E-13 6.15286E-13 6.06461E+00
 -1       350 1.49313E+01 1.96125E+01-3.24934E+02 8.90804E-01 4.22008E+00 4.62398E+00
 -1       351-6.39245E+00-5.89841E+00-3.27559E+02-4.10283E-13 8.75078E-13-4.76784E+00
 -1       352 2.64675E+01 2.19609E+01-3.12742E+02 1.11377E+00 5.90990E+00-5.82470E+00
 -1       353 1.84042E+01 9.39105E+00-3.26239E+02-4.70179E-13 1.58762E-13-4.18596E+00
 -1       354 2.64675E+01 2.19609E+01-3.12742E+02-1.11377E+00-5.90990E+00-5.82470E+00
 -1       355-1.40150E+01-1.45371E+01-3.28089E+02 5.02820E-13 3.31735E-13 1.07764E+01
 -1       356 9.69217E+01 9.68885E+01-2.80064E+02 3.51741E+00 3.52381E+01-7.81343E+01
 -1       357 8.89510E+01 8.88846E+01-3.22440E+02 6.63913E-14 5.24469E-13-7.99055E+01
 -1       358 9.69217E+01 9.68885E+01-2.80064E+02-3.51741E+00-3.52381E+01-7.81343E+01
 -1       359-8.48225E+01-8.44383E+01-3.25079E+02 1.86651E-12 2.00195E-12 6.31281E+01
 -1       360-8.61592E+01-8.39970E+01-3.61363E+02-4.28269E-13-1.47607E+01 2.42473E-13
 -1       361-8.39970E+01-8.61592E+01-3.61363E+02 1.16795E-13 1.85629E-13-1.47607E+01
 -1       362-9.87713E+01-9.87713E+01-3.97259E+02-5.46674E-13 7.54952E-13-1.30562E-13
 -1       363-8.39970E+01-8.61592E+01-3.61363E+02-1.61371E-13 3.89910E-13 1.47607E+01
 -1       364-8.61592E+01-8.39970E+01-3.61363E+02-4.53138E-13 1.47607E+01-8.22453E-13
 -1       365-2.39276E+01-2.39276E+01-3.74879E+02 1.84408E-13 3.57492E-14-3.33067E-14
 -1       366 2.53900E+01 2.07088E+01-3.30238E+02 5.12645E-13 5.76220E+00 5.73763E-13
 -1       367 2.07088E+01 2.53900E+01-3.30238E+02 4.08062E-13 4.46310E-13 5.76220E+00
 -1       368 2.46641E+01 2.46641E+01-3.31834E+02 7.05040E-13 2.14273E-13-2.60902E-14
 -1       369 2.07088E+01 2.53900E+01-3.30238E+02 3.67817E-13 4.87832E-13-5.76220E+00
 -1       370 2.53900E+01 2.07088E+01-3.30238E+02 2.54075E-13-5.76220E+00 4.46088E-13
 -1       371-2.73612E+00-2.73612E+00-3.19241E+02-1.18877E-13 4.20219E-13 2.82885E-13
 -1       372 2.54793E+00 7.05452E+00-3.42431E+02-5.20001E-13-4.61081E+00 1.32561E-12
 -1       373 7.05452E+00 2.54793E+00-3.42431E+02-6.08819E-13 3.68150E-13-4.61081E+00
 -1       374-4.29519E+00-4.29519E+00-3.58622E+02-7.58612E-13 5.40235E-13 1.19327E-12
 -1       375 7.05452E+00 2.54793E+00-3.42431E+02-4.31571E-13 7.91811E-13 4.61081E+00
 -1       376 2.54793E+00 7.05452E+00-3.42431E+02-1.35586E-13 4.61081E+00 1.24301E-12
 -1       377-7.98977E+00-7.98977E+00-3.04658E+02-1.01294E-13 7.63833E-13 1.18971E-12
 -1       378 6.84614E+01 6.84946E+01-3.75109E+02 2.51354E-13-3.67331E+01 1.40199E-12
 -1       379 6.84946E+01 6.84614E+01-3.75109E+02 5.33684E-13 3.04645E-13-3.67331E+01
 -1       380 4.80382E+01 4.80382E+01-4.27778E+02 4.39052E-13-1.74638E-13 1.21037E-12
 -1       381 6.84946E+01 6.84614E+01-3.75109E+02 3.33067E-16 2.49467E-13 3.67331E+01
 -1       382 6.84614E+01 6.84946E+01-3.75109E+02 6.95000E-13 3.67331E+01 1.25810E-12
 -1       383-9.47047E+01-9.47047E+01-3.52657E+02-2.15120E-13 8.83738E-13 1.33227E-12
 -3
 9999
